20437
1 0 1 1 1 1 0 0 1 0 0 0 0 0 1 1 1 0 0 1 1 1 0 0 1 0 1 0 1 0 
20 0 20 2 20 5 2 24 14 0 24 16 8 20 3 14 14 0 5 0 2 0 5 3 5 8 19 24 5 24 5 5 20 5 20 20 24 15 0 14 0 14 15 8 24 14 0 20 0 8 5 14 14 5 20 20 2 21 0 14 0 5 20 0 0 0 24 0 5 24 20 20 5 0 24 8 26 20 14 24 20 0 20 0 19 0 2 4 20 5 2 24 0 0 0 5 2 2 21 16 8 0 14 0 2 5 0 0 14 28 14 14 2 0 0 21 24 24 24 24 5 8 5 20 16 0 5 24 0 21 0 0 24 5 8 14 4 5 20 14 5 8 20 14 8 5 5 5 2 5 
